NAME : in_house_8_18
TYPE : TSP
DIMENSION : 8
EDGE_WEIGHT_TYPE : EXPLICIT
EDGE_WEIGHT_FORMAT : UPPER_ROW
COMMENT : INVERSION_SHIFT=8
EDGE_WEIGHT_SECTION
34
12
14
60
23
37
39
32
10
37
35
1
38
47
38
53
58
34
57
52
50
60
10
60
43
18
9
5
